0
0
1
2
3
4
5
6
7
8
9
10
11
12
13
14
15
16
17
18
19
20
21
22
23
24
25
25
25
25
24
24
24
23
23
23
22
22
22
21
21
21
20
20
20
19
19
19
18
18
18
18
17
17
17
17
19
16
16
16
16
20
15
15
15
15
14
14
14
14
13
13
13
13
12
12
21
12
12
11
11
11
11
12
22
11
10
10
10
10
10
9
9
9
9
9
8
23
8
8
8
8
13
8
7
7
24
7
7
7
7
6
6
25
6
14
6
6
6
15
6
5
5
5
5
9
7
5
5
5
5
5
4
4
4
4
4
4
4
4
4
4
16
3
3
3
10
3
3
3
3
3
3
3
3
3
2
2
2
2
2
2
4
2
2
2
2
2
2
6
2
2
3
17
11
2
2
8
1
2
1
1
1
1
1
1
1
1
1
18
1
1
1
1
1
1
5
25
19
25
